100 8
855 733
484 444
788 183
389 419
659 335
773 763
753 671
455 582
900 725
284 830
821 930
913 760
241 582
548 328
720 307
373 305
641 391
820 736
523 686
759 362
831 597
777 67
670 305
666 367
811 739
459 420
841 762
723 346
761 588
762 253
812 764
698 309
477 405
776 764
245 654
517 850
556 427
298 699
217 464
808 771
430 505
704 576
799 740
900 161
686 915
426 730
817 848
746 253
291 537
419 845
590 348
364 667
387 802
741 870
444 265
585 460
615 391
524 371
657 787
466 418
740 244
699 680
673 384
443 324
712 691
675 758
850 144
354 296
562 523
520 853
552 422
612 757
603 294
612 606
524 495
723 920
623 494
414 688
626 270
507 850
836 166
736 351
769 751
609 350
271 366
671 610
633 630
525 774
566 282
386 518
823 223
825 13
553 540
847 127
794 788
340 329
844 747
472 439
584 749
805 333
